p edge 100 511
e 1 17
e 1 18
e 1 24
e 1 33
e 1 34
e 1 46
e 1 74
e 1 75
e 2 19
e 2 22
e 2 28
e 2 35
e 2 38
e 2 61
e 2 84
e 2 93
e 3 13
e 3 26
e 3 45
e 3 51
e 3 66
e 3 73
e 3 75
e 3 78
e 3 86
e 3 94
e 4 31
e 4 33
e 4 34
e 4 36
e 4 51
e 4 54
e 4 62
e 4 95
e 4 96
e 5 29
e 5 34
e 5 48
e 5 50
e 5 51
e 5 60
e 5 75
e 5 76
e 5 87
e 5 98
e 6 13
e 6 23
e 6 24
e 6 36
e 6 42
e 6 65
e 6 67
e 6 89
e 7 8
e 7 17
e 7 18
e 7 19
e 7 20
e 7 44
e 7 51
e 7 52
e 7 53
e 7 56
e 7 69
e 7 73
e 7 97
e 7 98
e 8 42
e 8 48
e 8 55
e 8 90
e 8 94
e 9 16
e 9 20
e 9 82
e 9 84
e 9 96
e 9 97
e 10 13
e 10 14
e 10 28
e 10 38
e 10 57
e 10 58
e 10 61
e 10 65
e 10 67
e 10 75
e 10 79
e 10 81
e 10 93
e 10 94
e 10 96
e 11 38
e 11 55
e 11 65
e 11 68
e 11 72
e 11 87
e 11 91
e 11 94
e 12 17
e 12 35
e 12 51
e 12 57
e 12 62
e 12 64
e 12 76
e 12 84
e 12 94
e 12 97
e 12 99
e 13 30
e 13 48
e 13 50
e 13 62
e 13 70
e 13 72
e 13 77
e 13 90
e 13 94
e 14 17
e 14 29
e 14 37
e 14 46
e 14 49
e 14 55
e 14 56
e 14 99
e 15 26
e 15 40
e 15 53
e 15 61
e 15 62
e 15 81
e 15 84
e 15 89
e 15 92
e 15 94
e 16 38
e 16 45
e 16 56
e 16 68
e 16 74
e 16 90
e 17 18
e 17 22
e 17 29
e 17 48
e 17 50
e 17 81
e 17 85
e 17 95
e 18 19
e 18 24
e 18 33
e 18 40
e 18 47
e 18 71
e 18 75
e 18 82
e 18 94
e 19 30
e 19 35
e 19 40
e 19 45
e 19 52
e 19 57
e 19 74
e 19 90
e 19 96
e 20 27
e 20 36
e 20 40
e 20 43
e 20 52
e 20 53
e 20 66
e 20 74
e 20 77
e 20 79
e 20 85
e 20 97
e 21 24
e 21 26
e 21 39
e 21 41
e 21 45
e 21 63
e 21 70
e 22 35
e 22 37
e 22 38
e 22 43
e 22 50
e 22 52
e 22 59
e 22 62
e 22 88
e 23 24
e 23 32
e 23 51
e 23 53
e 23 68
e 23 71
e 23 73
e 23 82
e 23 91
e 24 30
e 24 38
e 24 48
e 24 49
e 24 59
e 24 75
e 24 76
e 24 79
e 24 87
e 25 27
e 25 58
e 25 65
e 25 66
e 25 70
e 25 88
e 25 91
e 25 95
e 26 30
e 26 38
e 26 41
e 26 45
e 26 64
e 26 88
e 26 89
e 26 92
e 27 41
e 27 43
e 27 44
e 27 65
e 27 68
e 27 84
e 27 86
e 27 94
e 28 29
e 28 37
e 28 48
e 28 64
e 28 69
e 28 73
e 28 85
e 28 89
e 28 96
e 29 86
e 29 97
e 30 39
e 30 52
e 30 62
e 30 65
e 30 71
e 30 84
e 31 60
e 31 73
e 31 77
e 31 83
e 31 90
e 32 44
e 32 50
e 32 51
e 32 58
e 32 60
e 32 63
e 32 86
e 33 37
e 33 44
e 33 47
e 33 49
e 33 59
e 33 65
e 33 81
e 33 90
e 33 92
e 33 93
e 33 95
e 34 44
e 34 58
e 34 67
e 34 94
e 34 98
e 35 40
e 35 43
e 35 46
e 35 48
e 35 52
e 35 58
e 35 59
e 35 77
e 35 78
e 35 81
e 35 93
e 36 64
e 36 65
e 36 95
e 36 96
e 36 97
e 37 46
e 37 54
e 37 68
e 37 79
e 38 42
e 38 55
e 39 45
e 39 46
e 39 63
e 39 70
e 39 79
e 39 82
e 39 93
e 39 96
e 40 59
e 40 84
e 40 86
e 40 91
e 40 94
e 41 47
e 41 59
e 41 90
e 41 93
e 42 47
e 42 49
e 42 54
e 42 60
e 42 62
e 42 66
e 42 68
e 42 69
e 42 88
e 42 90
e 43 44
e 43 58
e 43 60
e 43 76
e 43 78
e 43 81
e 43 82
e 43 85
e 43 90
e 44 71
e 44 77
e 44 89
e 44 90
e 45 51
e 45 60
e 45 72
e 45 94
e 46 48
e 46 55
e 46 59
e 46 63
e 46 64
e 46 91
e 47 48
e 47 58
e 47 66
e 47 81
e 48 60
e 48 63
e 48 67
e 48 70
e 48 72
e 48 75
e 48 80
e 48 82
e 48 97
e 49 51
e 49 59
e 49 66
e 49 79
e 49 80
e 49 95
e 50 56
e 50 57
e 50 72
e 50 76
e 50 95
e 50 96
e 51 57
e 51 60
e 51 62
e 51 67
e 51 71
e 51 96
e 52 60
e 52 64
e 52 73
e 52 76
e 52 82
e 52 90
e 53 59
e 53 63
e 53 71
e 53 74
e 53 88
e 53 95
e 54 87
e 54 90
e 54 96
e 55 76
e 55 84
e 55 85
e 55 86
e 55 96
e 56 61
e 56 67
e 56 70
e 56 72
e 56 89
e 57 62
e 57 99
e 57 100
e 58 63
e 58 91
e 58 92
e 58 93
e 59 69
e 59 91
e 59 93
e 59 95
e 60 61
e 60 63
e 60 72
e 60 89
e 60 92
e 60 97
e 61 66
e 61 90
e 61 92
e 61 97
e 62 65
e 62 66
e 62 76
e 62 79
e 62 98
e 62 99
e 63 75
e 63 89
e 64 93
e 64 98
e 66 76
e 66 82
e 67 74
e 67 77
e 67 92
e 67 95
e 68 72
e 68 74
e 68 82
e 68 99
e 69 71
e 69 74
e 69 85
e 69 97
e 70 92
e 70 98
e 70 99
e 71 74
e 71 79
e 71 99
e 72 74
e 72 75
e 72 83
e 72 86
e 72 93
e 73 76
e 73 79
e 73 85
e 73 89
e 74 85
e 74 89
e 74 94
e 75 90
e 76 78
e 76 88
e 76 95
e 77 84
e 78 86
e 78 89
e 78 91
e 78 93
e 78 94
e 79 86
e 79 87
e 79 90
e 81 91
e 82 86
e 83 90
e 83 92
e 84 99
e 85 99
e 86 95
e 87 90
e 87 97
e 88 91
e 88 93
e 88 100
e 89 98
e 89 99
e 89 100
e 91 96
e 91 99
e 92 99
e 93 94
e 93 95
e 97 99
